\ This file has been generated by DOcplex
\ ENCODING=ISO-8859-1
\Problem name: test_dense_5

Minimize
 obj: - 4 x_0 + 4 x_1 + 3 x_2 - 2 x_3 + 3 x_4 + [ - 6 x_0^2 - 10 x_0*x_1
      - 8 x_0*x_2 - 8 x_0*x_3 - 6 x_0*x_4 - 6 x_1^2 + 6 x_1*x_2 + 10 x_1*x_3
      - 4 x_1*x_4 + 10 x_2^2 - 18 x_2*x_3 + 4 x_2*x_4 - 6 x_3^2 + 2 x_3*x_4
      - 4 x_4^2 ]/2
Subject To

Bounds
 0 <= x_0 <= 1
 0 <= x_1 <= 1
 0 <= x_2 <= 1
 0 <= x_3 <= 1
 0 <= x_4 <= 1

Binaries
 x_0 x_1 x_2 x_3 x_4
End
